n = 6;
C = 98;
v = [16, 11, 16, 10, 20, 19];
w = [13, 14, 12, 20, 11, 16];
c = [13, 6, 3, 5, 8, 4];
m = 14;
l = [|0,39,34,39,35,16,23,3,8,45,16,27,22,33,|39,0,45,50,3,43,25,33,12,27,30,41,28,26,|34,45,0,21,29,27,29,9,9,15,3,33,28,41,|39,50,21,0,30,49,30,37,3,27,21,20,18,40,|35,3,29,30,0,22,45,47,8,44,11,27,11,44,|16,43,27,49,22,0,3,21,34,18,29,2,23,45,|23,25,29,30,45,3,0,4,17,14,12,8,22,49,|3,33,9,37,47,21,4,0,6,32,6,15,47,28,|8,12,9,3,8,34,17,6,0,41,47,6,29,38,|45,27,15,27,44,18,14,32,41,0,41,49,6,50,|16,30,3,21,11,29,12,6,47,41,0,2,17,43,|27,41,33,20,27,2,8,15,6,49,2,0,21,49,|22,28,28,18,11,23,22,47,29,6,17,21,0,37,|33,26,41,40,44,45,49,28,38,50,43,49,37,0,|];
